c turning on binary mode checking
c parsing input formula with 2139 variables and 9000 clauses
c finished parsing, read 73453306 bytes from proof file
c detected empty clause; start verification via backward checking
c 8196 of 9000 clauses in core                            
c 464170 of 1116743 lemmas in core using 13292873 resolution steps
c 0 RAT lemmas in core; 225882 redundant literals in core lemmas
s VERIFIED
c verification time: 68.024 seconds
